
Gurobi 6.5.2 (linux64) logging started Wed Aug 31 10:35:38 2016

Optimize a model with 201 rows, 2575 columns and 5459 nonzeros
Coefficient statistics:
  Matrix range    [1e+00, 2e+00]
  Objective range [1e+00, 1e+02]
  Bounds range    [1e+00, 1e+00]
  RHS range       [1e+00, 1e+00]
Found heuristic solution: objective 3074
Presolve removed 60 rows and 6 columns
Presolve time: 0.01s
Presolved: 141 rows, 2569 columns, 5187 nonzeros
Variable types: 0 continuous, 2569 integer (2569 binary)

Root relaxation: objective 1.023500e+03, 131 iterations, 0.00 seconds

    Nodes    |    Current Node    |     Objective Bounds      |     Work
 Expl Unexpl |  Obj  Depth IntInf | Incumbent    BestBd   Gap | It/Node Time

     0     0 1023.50000    0   26 3074.00000 1023.50000  66.7%     -    0s
H    0     0                    1144.0000000 1023.50000  10.5%     -    0s
H    0     0                    1052.0000000 1023.50000  2.71%     -    0s
     0     0 1049.75000    0   10 1052.00000 1049.75000  0.21%     -    0s
     0     0 1049.75000    0   26 1052.00000 1049.75000  0.21%     -    0s
     0     0 1050.00000    0    6 1052.00000 1050.00000  0.19%     -    0s

Cutting planes:
  Gomory: 19
  Cover: 31
  Zero half: 1

Explored 0 nodes (353 simplex iterations) in 0.07 seconds
Thread count was 8 (of 8 available processors)

Optimal solution found (tolerance 1.00e-04)
Best objective 1.052000000000e+03, best bound 1.052000000000e+03, gap 0.0%
